Zincblende                              
   5.17000000000000     
     1.9918692399773787    0.0000000000000000    0.0000000000000000
     0.0000000000000000    1.9918692399773787    0.0000000000000000
    -0.0000000000000000    0.0000000000000000    1.9918692399773787
   In   O 
    32    48
Direct
  0.2500000000000000  0.2500000000000000  0.2500000000000000
  0.2500000000000000  0.7500000000000000  0.7500000000000000
  0.7500000000000000  0.7500000000000000  0.2500000000000000
  0.7500000000000000  0.2500000000000000  0.7500000000000000
  0.7500000000000000  0.7500000000000000  0.7500000000000000
  0.7500000000000000  0.2500000000000000  0.2500000000000000
  0.2500000000000000  0.2500000000000000  0.7500000000000000
  0.2500000000000000  0.7500000000000000  0.2500000000000000
  0.4660010517119393  0.0000000000000000  0.2500000000000000
  0.0339989482880608  0.0000000000000000  0.7500000000000000
  0.2500000000000000  0.4660010517119393 -0.0000000000000000
  0.7500000000000000  0.0339989482880608 -0.0000000000000000
  0.0000000000000000  0.2500000000000000  0.4660010517119393
  0.0000000000000000  0.7500000000000000  0.0339989482880608
  0.5339989482880606  0.0000000000000000  0.7500000000000000
  0.9660010517119394  0.0000000000000000  0.2500000000000000
  0.7500000000000000  0.5339989482880606 -0.0000000000000000
  0.2500000000000000  0.9660010517119394 -0.0000000000000000
  0.0000000000000000  0.7500000000000000  0.5339989482880606
  0.0000000000000000  0.2500000000000000  0.9660010517119394
  0.9660010517119394  0.5000000000000000  0.7500000000000000
  0.5339989482880606  0.5000000000000000  0.2500000000000000
  0.7500000000000000  0.9660010517119394  0.5000000000000000
  0.2500000000000000  0.5339989482880606  0.5000000000000000
  0.5000000000000000  0.7500000000000000  0.9660010517119394
  0.5000000000000000  0.2500000000000000  0.5339989482880606
  0.0339989482880608  0.5000000000000000  0.2500000000000000
  0.4660010517119393  0.5000000000000000  0.7500000000000000
  0.2500000000000000  0.0339989482880608  0.5000000000000000
  0.7500000000000000  0.4660010517119393  0.5000000000000000
  0.5000000000000000  0.2500000000000000  0.0339989482880608
  0.5000000000000000  0.7500000000000000  0.4660010517119393
  0.3897712630936695  0.1545101369049290  0.3824648597198655
  0.1102287369063305  0.8454898630950710  0.8824648597198657
  0.6102287369063304  0.6545101369049290  0.1175351402801344
  0.8897712630936696  0.3454898630950711  0.6175351402801343
  0.3824648597198655  0.3897712630936695  0.1545101369049290
  0.8824648597198657  0.1102287369063305  0.8454898630950710
  0.1175351402801344  0.6102287369063304  0.6545101369049290
  0.6175351402801343  0.8897712630936696  0.3454898630950711
  0.1545101369049290  0.3824648597198655  0.3897712630936695
  0.8454898630950710  0.8824648597198657  0.1102287369063305
  0.6545101369049290  0.1175351402801344  0.6102287369063304
  0.3454898630950711  0.6175351402801343  0.8897712630936696
  0.6102287369063304  0.8454898630950710  0.6175351402801343
  0.8897712630936696  0.1545101369049290  0.1175351402801344
  0.3897712630936695  0.3454898630950711  0.8824648597198657
  0.1102287369063305  0.6545101369049290  0.3824648597198655
  0.6175351402801343  0.6102287369063304  0.8454898630950710
  0.1175351402801344  0.8897712630936696  0.1545101369049290
  0.8824648597198657  0.3897712630936695  0.3454898630950711
  0.3824648597198655  0.1102287369063305  0.6545101369049290
  0.8454898630950710  0.6175351402801343  0.6102287369063304
  0.1545101369049290  0.1175351402801344  0.8897712630936696
  0.3454898630950711  0.8824648597198657  0.3897712630936695
  0.6545101369049290  0.3824648597198655  0.1102287369063305
  0.8897712630936696  0.6545101369049290  0.8824648597198657
  0.6102287369063304  0.3454898630950711  0.3824648597198655
  0.1102287369063305  0.1545101369049290  0.6175351402801343
  0.3897712630936695  0.8454898630950710  0.1175351402801344
  0.8824648597198657  0.8897712630936696  0.6545101369049290
  0.3824648597198655  0.6102287369063304  0.3454898630950711
  0.6175351402801343  0.1102287369063305  0.1545101369049290
  0.1175351402801344  0.3897712630936695  0.8454898630950710
  0.6545101369049290  0.8824648597198657  0.8897712630936696
  0.3454898630950711  0.3824648597198655  0.6102287369063304
  0.1545101369049290  0.6175351402801343  0.1102287369063305
  0.8454898630950710  0.1175351402801344  0.3897712630936695
  0.1102287369063305  0.3454898630950711  0.1175351402801344
  0.3897712630936695  0.6545101369049290  0.6175351402801343
  0.8897712630936696  0.8454898630950710  0.3824648597198655
  0.6102287369063304  0.1545101369049290  0.8824648597198657
  0.1175351402801344  0.1102287369063305  0.3454898630950711
  0.6175351402801343  0.3897712630936695  0.6545101369049290
  0.3824648597198655  0.8897712630936696  0.8454898630950710
  0.8824648597198657  0.6102287369063304  0.1545101369049290
  0.3454898630950711  0.1175351402801344  0.1102287369063305
  0.6545101369049290  0.6175351402801343  0.3897712630936695
  0.8454898630950710  0.3824648597198655  0.8897712630936696
  0.1545101369049290  0.8824648597198657  0.6102287369063304
 
  0.00000000E+00  0.00000000E+00  0.00000000E+00
  0.00000000E+00  0.00000000E+00  0.00000000E+00
  0.00000000E+00  0.00000000E+00  0.00000000E+00
  0.00000000E+00  0.00000000E+00  0.00000000E+00
  0.00000000E+00  0.00000000E+00  0.00000000E+00
  0.00000000E+00  0.00000000E+00  0.00000000E+00
  0.00000000E+00  0.00000000E+00  0.00000000E+00
  0.00000000E+00  0.00000000E+00  0.00000000E+00
  0.00000000E+00  0.00000000E+00  0.00000000E+00
  0.00000000E+00  0.00000000E+00  0.00000000E+00
  0.00000000E+00  0.00000000E+00  0.00000000E+00
  0.00000000E+00  0.00000000E+00  0.00000000E+00
  0.00000000E+00  0.00000000E+00  0.00000000E+00
  0.00000000E+00  0.00000000E+00  0.00000000E+00
  0.00000000E+00  0.00000000E+00  0.00000000E+00
  0.00000000E+00  0.00000000E+00  0.00000000E+00
  0.00000000E+00  0.00000000E+00  0.00000000E+00
  0.00000000E+00  0.00000000E+00  0.00000000E+00
  0.00000000E+00  0.00000000E+00  0.00000000E+00
  0.00000000E+00  0.00000000E+00  0.00000000E+00
  0.00000000E+00  0.00000000E+00  0.00000000E+00
  0.00000000E+00  0.00000000E+00  0.00000000E+00
  0.00000000E+00  0.00000000E+00  0.00000000E+00
  0.00000000E+00  0.00000000E+00  0.00000000E+00
  0.00000000E+00  0.00000000E+00  0.00000000E+00
  0.00000000E+00  0.00000000E+00  0.00000000E+00
  0.00000000E+00  0.00000000E+00  0.00000000E+00
  0.00000000E+00  0.00000000E+00  0.00000000E+00
  0.00000000E+00  0.00000000E+00  0.00000000E+00
  0.00000000E+00  0.00000000E+00  0.00000000E+00
  0.00000000E+00  0.00000000E+00  0.00000000E+00
  0.00000000E+00  0.00000000E+00  0.00000000E+00
  0.00000000E+00  0.00000000E+00  0.00000000E+00
  0.00000000E+00  0.00000000E+00  0.00000000E+00
  0.00000000E+00  0.00000000E+00  0.00000000E+00
  0.00000000E+00  0.00000000E+00  0.00000000E+00
  0.00000000E+00  0.00000000E+00  0.00000000E+00
  0.00000000E+00  0.00000000E+00  0.00000000E+00
  0.00000000E+00  0.00000000E+00  0.00000000E+00
  0.00000000E+00  0.00000000E+00  0.00000000E+00
  0.00000000E+00  0.00000000E+00  0.00000000E+00
  0.00000000E+00  0.00000000E+00  0.00000000E+00
  0.00000000E+00  0.00000000E+00  0.00000000E+00
  0.00000000E+00  0.00000000E+00  0.00000000E+00
  0.00000000E+00  0.00000000E+00  0.00000000E+00
  0.00000000E+00  0.00000000E+00  0.00000000E+00
  0.00000000E+00  0.00000000E+00  0.00000000E+00
  0.00000000E+00  0.00000000E+00  0.00000000E+00
  0.00000000E+00  0.00000000E+00  0.00000000E+00
  0.00000000E+00  0.00000000E+00  0.00000000E+00
  0.00000000E+00  0.00000000E+00  0.00000000E+00
  0.00000000E+00  0.00000000E+00  0.00000000E+00
  0.00000000E+00  0.00000000E+00  0.00000000E+00
  0.00000000E+00  0.00000000E+00  0.00000000E+00
  0.00000000E+00  0.00000000E+00  0.00000000E+00
  0.00000000E+00  0.00000000E+00  0.00000000E+00
  0.00000000E+00  0.00000000E+00  0.00000000E+00
  0.00000000E+00  0.00000000E+00  0.00000000E+00
  0.00000000E+00  0.00000000E+00  0.00000000E+00
  0.00000000E+00  0.00000000E+00  0.00000000E+00
  0.00000000E+00  0.00000000E+00  0.00000000E+00
  0.00000000E+00  0.00000000E+00  0.00000000E+00
  0.00000000E+00  0.00000000E+00  0.00000000E+00
  0.00000000E+00  0.00000000E+00  0.00000000E+00
  0.00000000E+00  0.00000000E+00  0.00000000E+00
  0.00000000E+00  0.00000000E+00  0.00000000E+00
  0.00000000E+00  0.00000000E+00  0.00000000E+00
  0.00000000E+00  0.00000000E+00  0.00000000E+00
  0.00000000E+00  0.00000000E+00  0.00000000E+00
  0.00000000E+00  0.00000000E+00  0.00000000E+00
  0.00000000E+00  0.00000000E+00  0.00000000E+00
  0.00000000E+00  0.00000000E+00  0.00000000E+00
  0.00000000E+00  0.00000000E+00  0.00000000E+00
  0.00000000E+00  0.00000000E+00  0.00000000E+00
  0.00000000E+00  0.00000000E+00  0.00000000E+00
  0.00000000E+00  0.00000000E+00  0.00000000E+00
  0.00000000E+00  0.00000000E+00  0.00000000E+00
  0.00000000E+00  0.00000000E+00  0.00000000E+00
  0.00000000E+00  0.00000000E+00  0.00000000E+00
  0.00000000E+00  0.00000000E+00  0.00000000E+00
