Zincblende                              
   1.00000000000000     
     9.6151976488113924    0.0000000000000000    0.0000000000000000
     0.0000000000000000   14.7617332770081688    0.0000000000000000
     0.0000000000000000    0.0000000000000000    9.8838358585889754
   P    O 
    32    80
Direct
  0.3952662005471752  0.3257560867254216  0.1250000000000000
  0.3952662005471752  0.8257560867254217  0.1250000000000000
  0.3952662005471752  0.3257560867254216  0.6250000000000000
  0.3952662005471752  0.8257560867254217  0.6250000000000000
  0.1050041906013048  0.0757420005346480  0.3750000000000000
  0.1050041906013048  0.5757420005346479  0.3750000000000000
  0.1050041906013048  0.0757420005346480  0.8750000000000000
  0.1050041906013048  0.5757420005346479  0.8750000000000000
  0.6050073725144191  0.1742479534891381  0.3750000000000000
  0.6050073725144191  0.6742479534891380  0.3750000000000000
  0.6050073725144191  0.1742479534891381  0.8750000000000000
  0.6050073725144191  0.6742479534891380  0.8750000000000000
  0.8952872791091879  0.4242561806234624  0.1250000000000000
  0.8952872791091879  0.9242561806234624  0.1250000000000000
  0.8952872791091879  0.4242561806234624  0.6250000000000000
  0.8952872791091879  0.9242561806234624  0.6250000000000000
  0.2493673534990628  0.1438901668965209  0.1250000000000000
  0.2493673534990628  0.6438901668965210  0.1250000000000000
  0.2493673534990628  0.1438901668965209  0.6250000000000000
  0.2493673534990628  0.6438901668965210  0.6250000000000000
  0.2509409547938788  0.3938816416454906  0.3750000000000000
  0.2509409547938788  0.8938816416454908  0.3750000000000000
  0.2509409547938788  0.3938816416454906  0.8750000000000000
  0.2509409547938788  0.8938816416454908  0.8750000000000000
  0.7509458563432119  0.3561140848085441  0.3750000000000000
  0.7509458563432119  0.8561140848085441  0.3750000000000000
  0.7509458563432119  0.3561140848085441  0.8750000000000000
  0.7509458563432119  0.8561140848085441  0.8750000000000000
  0.7493781522793556  0.1061046789465747  0.1250000000000000
  0.7493781522793556  0.6061046789465747  0.1250000000000000
  0.7493781522793556  0.1061046789465747  0.6250000000000000
  0.7493781522793556  0.6061046789465747  0.6250000000000000
  0.2769575710490574  0.2505400787625567  0.1250000000000000
  0.2769575710490574  0.7505400787625567  0.1250000000000000
  0.2769575710490574  0.2505400787625567  0.6250000000000000
  0.2769575710490574  0.7505400787625567  0.6250000000000000
  0.2232646851784576  0.0005158580012697  0.3750000000000000
  0.2232646851784576  0.5005158580012695  0.3750000000000000
  0.2232646851784576  0.0005158580012697  0.8750000000000000
  0.2232646851784576  0.5005158580012695  0.8750000000000000
  0.7232999084920227  0.2494704460131958  0.3750000000000000
  0.7232999084920227  0.7494704460131957  0.3750000000000000
  0.7232999084920227  0.2494704460131958  0.8750000000000000
  0.7232999084920227  0.7494704460131957  0.8750000000000000
  0.7769490785043823  0.4994591492900300  0.1250000000000000
  0.7769490785043823  0.9994591492900300  0.1250000000000000
  0.7769490785043823  0.4994591492900300  0.6250000000000000
  0.7769490785043823  0.9994591492900300  0.6250000000000000
  0.5411229069945059  0.2977634350260235  0.1250000000000000
  0.5411229069945059  0.7977634350260236  0.1250000000000000
  0.5411229069945059  0.2977634350260235  0.6250000000000000
  0.5411229069945059  0.7977634350260236  0.6250000000000000
  0.9591047740697279  0.0478097903177507  0.3750000000000000
  0.9591047740697279  0.5478097903177507  0.3750000000000000
  0.9591047740697279  0.0478097903177507  0.8750000000000000
  0.9591047740697279  0.5478097903177507  0.8750000000000000
  0.4591276034626919  0.2022060355723447  0.3750000000000000
  0.4591276034626919  0.7022060355723446  0.3750000000000000
  0.4591276034626919  0.2022060355723447  0.8750000000000000
  0.4591276034626919  0.7022060355723446  0.8750000000000000
  0.0411528618930904  0.4522504005923127  0.1250000000000000
  0.0411528618930904  0.9522504005923128  0.1250000000000000
  0.0411528618930904  0.4522504005923127  0.6250000000000000
  0.0411528618930904  0.9522504005923128  0.6250000000000000
  0.3662641140099825  0.0813228145612468  0.1250000000000000
  0.3662641140099825  0.5813228145612468  0.1250000000000000
  0.3662641140099825  0.0813228145612468  0.6250000000000000
  0.3662641140099825  0.5813228145612468  0.6250000000000000
  0.1340474095351175  0.3313390689477096  0.3750000000000000
  0.1340474095351175  0.8313390689477097  0.3750000000000000
  0.1340474095351175  0.3313390689477096  0.8750000000000000
  0.1340474095351175  0.8313390689477097  0.8750000000000000
  0.6340538148990539  0.4186666220736450  0.3750000000000000
  0.6340538148990539  0.9186666220736449  0.3750000000000000
  0.6340538148990539  0.4186666220736450  0.8750000000000000
  0.6340538148990539  0.9186666220736449  0.8750000000000000
  0.8662614614349179  0.1686697639909448  0.1250000000000000
  0.8662614614349179  0.6686697639909518  0.1250000000000000
  0.8662614614349179  0.1686697639909448  0.6250000000000000
  0.8662614614349179  0.6686697639909518  0.6250000000000000
  0.3547881828192042  0.3886283982928108  0.0006305981977642
  0.3547881828192042  0.8886283982928108  0.0006305981977642
  0.3547881828192042  0.3886283982928108  0.5006305981977642
  0.3547881828192042  0.8886283982928108  0.5006305981977642
  0.1454909116735106  0.1386480715964869  0.4993856315495058
  0.1454909116735106  0.6386480715964870  0.4993856315495058
  0.1454909116735106  0.1386480715964869  0.9993856315495060
  0.1454909116735106  0.6386480715964870  0.9993856315495060
  0.6455016531479260  0.1113670297580876  0.2506258648968669
  0.6455016531479260  0.6113670297580875  0.2506258648968669
  0.6455016531479260  0.1113670297580876  0.7506258648968669
  0.6455016531479260  0.6113670297580875  0.7506258648968669
  0.8548174777540558  0.3613533719432100  0.2493812992707269
  0.8548174777540558  0.8613533719432102  0.2493812992707269
  0.8548174777540558  0.3613533719432100  0.7493812992707269
  0.8548174777540558  0.8613533719432102  0.7493812992707269
  0.6455016531479260  0.1113670297580876  0.4993741351031331
  0.6455016531479260  0.6113670297580875  0.4993741351031331
  0.6455016531479260  0.1113670297580876  0.9993741351031331
  0.6455016531479260  0.6113670297580875  0.9993741351031331
  0.8548174777540558  0.3613533719432100  0.0006187007292731
  0.8548174777540558  0.8613533719432102  0.0006187007292731
  0.8548174777540558  0.3613533719432100  0.5006187007292731
  0.8548174777540558  0.8613533719432102  0.5006187007292731
  0.3547881828192042  0.3886283982928108  0.2493694018022358
  0.3547881828192042  0.8886283982928108  0.2493694018022358
  0.3547881828192042  0.3886283982928108  0.7493694018022358
  0.3547881828192042  0.8886283982928108  0.7493694018022358
  0.1454909116735106  0.1386480715964869  0.2506143684504942
  0.1454909116735106  0.6386480715964870  0.2506143684504942
  0.1454909116735106  0.1386480715964869  0.7506143684504940
  0.1454909116735106  0.6386480715964870  0.7506143684504940
 
  0.00000000E+00  0.00000000E+00  0.00000000E+00
  0.00000000E+00  0.00000000E+00  0.00000000E+00
  0.00000000E+00  0.00000000E+00  0.00000000E+00
  0.00000000E+00  0.00000000E+00  0.00000000E+00
  0.00000000E+00  0.00000000E+00  0.00000000E+00
  0.00000000E+00  0.00000000E+00  0.00000000E+00
  0.00000000E+00  0.00000000E+00  0.00000000E+00
  0.00000000E+00  0.00000000E+00  0.00000000E+00
  0.00000000E+00  0.00000000E+00  0.00000000E+00
  0.00000000E+00  0.00000000E+00  0.00000000E+00
  0.00000000E+00  0.00000000E+00  0.00000000E+00
  0.00000000E+00  0.00000000E+00  0.00000000E+00
  0.00000000E+00  0.00000000E+00  0.00000000E+00
  0.00000000E+00  0.00000000E+00  0.00000000E+00
  0.00000000E+00  0.00000000E+00  0.00000000E+00
  0.00000000E+00  0.00000000E+00  0.00000000E+00
  0.00000000E+00  0.00000000E+00  0.00000000E+00
  0.00000000E+00  0.00000000E+00  0.00000000E+00
  0.00000000E+00  0.00000000E+00  0.00000000E+00
  0.00000000E+00  0.00000000E+00  0.00000000E+00
  0.00000000E+00  0.00000000E+00  0.00000000E+00
  0.00000000E+00  0.00000000E+00  0.00000000E+00
  0.00000000E+00  0.00000000E+00  0.00000000E+00
  0.00000000E+00  0.00000000E+00  0.00000000E+00
  0.00000000E+00  0.00000000E+00  0.00000000E+00
  0.00000000E+00  0.00000000E+00  0.00000000E+00
  0.00000000E+00  0.00000000E+00  0.00000000E+00
  0.00000000E+00  0.00000000E+00  0.00000000E+00
  0.00000000E+00  0.00000000E+00  0.00000000E+00
  0.00000000E+00  0.00000000E+00  0.00000000E+00
  0.00000000E+00  0.00000000E+00  0.00000000E+00
  0.00000000E+00  0.00000000E+00  0.00000000E+00
  0.00000000E+00  0.00000000E+00  0.00000000E+00
  0.00000000E+00  0.00000000E+00  0.00000000E+00
  0.00000000E+00  0.00000000E+00  0.00000000E+00
  0.00000000E+00  0.00000000E+00  0.00000000E+00
  0.00000000E+00  0.00000000E+00  0.00000000E+00
  0.00000000E+00  0.00000000E+00  0.00000000E+00
  0.00000000E+00  0.00000000E+00  0.00000000E+00
  0.00000000E+00  0.00000000E+00  0.00000000E+00
  0.00000000E+00  0.00000000E+00  0.00000000E+00
  0.00000000E+00  0.00000000E+00  0.00000000E+00
  0.00000000E+00  0.00000000E+00  0.00000000E+00
  0.00000000E+00  0.00000000E+00  0.00000000E+00
  0.00000000E+00  0.00000000E+00  0.00000000E+00
  0.00000000E+00  0.00000000E+00  0.00000000E+00
  0.00000000E+00  0.00000000E+00  0.00000000E+00
  0.00000000E+00  0.00000000E+00  0.00000000E+00
  0.00000000E+00  0.00000000E+00  0.00000000E+00
  0.00000000E+00  0.00000000E+00  0.00000000E+00
  0.00000000E+00  0.00000000E+00  0.00000000E+00
  0.00000000E+00  0.00000000E+00  0.00000000E+00
  0.00000000E+00  0.00000000E+00  0.00000000E+00
  0.00000000E+00  0.00000000E+00  0.00000000E+00
  0.00000000E+00  0.00000000E+00  0.00000000E+00
  0.00000000E+00  0.00000000E+00  0.00000000E+00
  0.00000000E+00  0.00000000E+00  0.00000000E+00
  0.00000000E+00  0.00000000E+00  0.00000000E+00
  0.00000000E+00  0.00000000E+00  0.00000000E+00
  0.00000000E+00  0.00000000E+00  0.00000000E+00
  0.00000000E+00  0.00000000E+00  0.00000000E+00
  0.00000000E+00  0.00000000E+00  0.00000000E+00
  0.00000000E+00  0.00000000E+00  0.00000000E+00
  0.00000000E+00  0.00000000E+00  0.00000000E+00
  0.00000000E+00  0.00000000E+00  0.00000000E+00
  0.00000000E+00  0.00000000E+00  0.00000000E+00
  0.00000000E+00  0.00000000E+00  0.00000000E+00
  0.00000000E+00  0.00000000E+00  0.00000000E+00
  0.00000000E+00  0.00000000E+00  0.00000000E+00
  0.00000000E+00  0.00000000E+00  0.00000000E+00
  0.00000000E+00  0.00000000E+00  0.00000000E+00
  0.00000000E+00  0.00000000E+00  0.00000000E+00
  0.00000000E+00  0.00000000E+00  0.00000000E+00
  0.00000000E+00  0.00000000E+00  0.00000000E+00
  0.00000000E+00  0.00000000E+00  0.00000000E+00
  0.00000000E+00  0.00000000E+00  0.00000000E+00
  0.00000000E+00  0.00000000E+00  0.00000000E+00
  0.00000000E+00  0.00000000E+00  0.00000000E+00
  0.00000000E+00  0.00000000E+00  0.00000000E+00
  0.00000000E+00  0.00000000E+00  0.00000000E+00
  0.00000000E+00  0.00000000E+00  0.00000000E+00
  0.00000000E+00  0.00000000E+00  0.00000000E+00
  0.00000000E+00  0.00000000E+00  0.00000000E+00
  0.00000000E+00  0.00000000E+00  0.00000000E+00
  0.00000000E+00  0.00000000E+00  0.00000000E+00
  0.00000000E+00  0.00000000E+00  0.00000000E+00
  0.00000000E+00  0.00000000E+00  0.00000000E+00
  0.00000000E+00  0.00000000E+00  0.00000000E+00
  0.00000000E+00  0.00000000E+00  0.00000000E+00
  0.00000000E+00  0.00000000E+00  0.00000000E+00
  0.00000000E+00  0.00000000E+00  0.00000000E+00
  0.00000000E+00  0.00000000E+00  0.00000000E+00
  0.00000000E+00  0.00000000E+00  0.00000000E+00
  0.00000000E+00  0.00000000E+00  0.00000000E+00
  0.00000000E+00  0.00000000E+00  0.00000000E+00
  0.00000000E+00  0.00000000E+00  0.00000000E+00
  0.00000000E+00  0.00000000E+00  0.00000000E+00
  0.00000000E+00  0.00000000E+00  0.00000000E+00
  0.00000000E+00  0.00000000E+00  0.00000000E+00
  0.00000000E+00  0.00000000E+00  0.00000000E+00
  0.00000000E+00  0.00000000E+00  0.00000000E+00
  0.00000000E+00  0.00000000E+00  0.00000000E+00
  0.00000000E+00  0.00000000E+00  0.00000000E+00
  0.00000000E+00  0.00000000E+00  0.00000000E+00
  0.00000000E+00  0.00000000E+00  0.00000000E+00
  0.00000000E+00  0.00000000E+00  0.00000000E+00
  0.00000000E+00  0.00000000E+00  0.00000000E+00
  0.00000000E+00  0.00000000E+00  0.00000000E+00
  0.00000000E+00  0.00000000E+00  0.00000000E+00
  0.00000000E+00  0.00000000E+00  0.00000000E+00
  0.00000000E+00  0.00000000E+00  0.00000000E+00
  0.00000000E+00  0.00000000E+00  0.00000000E+00
