Zincblende                              
   1.00000000000000     
    10.7571444227731536    0.0000000000000000    0.0000000000000000
     0.0000000000000000    8.1520401288050373    0.0000000000000000
     0.0000000000000000    0.0000000000000000   13.8553886568697777
   P    In   P    O 
     1    16    15    64
Direct
  0.0000000000000000  0.3503414794298507  0.1250000000000000
  0.0000000000000000  0.0000000000000000  0.0000000000000000
  0.0000000000000000  0.0000000000000000  0.2500000000000000
  0.2500000000000000  0.5000000000000000  0.0000000000000000
  0.2500000000000000  0.5000000000000000  0.2500000000000000
  0.5000000000000000  0.0000000000000000  0.0000000000000000
  0.5000000000000000  0.0000000000000000  0.2500000000000000
  0.7500000000000000  0.5000000000000000  0.0000000000000000
  0.7500000000000000  0.5000000000000000  0.2500000000000000
  0.0000000000000000  0.0000000000000000  0.5000000000000000
  0.0000000000000000  0.0000000000000000  0.7500000000000000
  0.2500000000000000  0.5000000000000000  0.5000000000000000
  0.2500000000000000  0.5000000000000000  0.7500000000000000
  0.5000000000000000  0.0000000000000000  0.5000000000000000
  0.5000000000000000  0.0000000000000000  0.7500000000000000
  0.7500000000000000  0.5000000000000000  0.5000000000000000
  0.7500000000000000  0.5000000000000000  0.7500000000000000
  0.0000000000000000  0.6496585205701493  0.3750000000000000
  0.2500000000000000  0.8503414794298507  0.1250000000000000
  0.2500000000000000  0.1496585205701493  0.3750000000000000
  0.5000000000000000  0.3503414794298507  0.1250000000000000
  0.5000000000000000  0.6496585205701493  0.3750000000000000
  0.7500000000000000  0.8503414794298507  0.1250000000000000
  0.7500000000000000  0.1496585205701493  0.3750000000000000
  0.0000000000000000  0.3503414794298507  0.6250000000000000
  0.0000000000000000  0.6496585205701493  0.8750000000000000
  0.2500000000000000  0.8503414794298507  0.6250000000000000
  0.2500000000000000  0.1496585205701493  0.8750000000000000
  0.5000000000000000  0.3503414794298507  0.6250000000000000
  0.5000000000000000  0.6496585205701493  0.8750000000000000
  0.7500000000000000  0.8503414794298507  0.6250000000000000
  0.7500000000000000  0.1496585205701493  0.8750000000000000
  0.1192476158692628  0.4642427879212150  0.1250000000000000
  0.8807523841307372  0.5357572120787850  0.3750000000000000
  0.8807523841307372  0.4642427879212150  0.1250000000000000
  0.1192476158692628  0.5357572120787850  0.3750000000000000
  0.3692476158692628  0.9642427879212150  0.1250000000000000
  0.1307523841307372  0.0357572120787850  0.3750000000000000
  0.1307523841307372  0.9642427879212150  0.1250000000000000
  0.3692476158692628  0.0357572120787850  0.3750000000000000
  0.0000000000000000  0.2522308799280140  0.0311856214220683
  0.0000000000000000  0.7477691200719860  0.2811856214220683
  0.0000000000000000  0.2522308799280140  0.2188143785779317
  0.0000000000000000  0.7477691200719860  0.9688143785779317
  0.2500000000000000  0.7522308799280140  0.0311856214220683
  0.2500000000000000  0.2477691200719860  0.2811856214220683
  0.2500000000000000  0.7522308799280140  0.2188143785779317
  0.2500000000000000  0.2477691200719860  0.9688143785779317
  0.6192476158692628  0.4642427879212150  0.1250000000000000
  0.3807523841307372  0.5357572120787850  0.3750000000000000
  0.3807523841307372  0.4642427879212150  0.1250000000000000
  0.6192476158692628  0.5357572120787850  0.3750000000000000
  0.8692476158692628  0.9642427879212150  0.1250000000000000
  0.6307523841307372  0.0357572120787850  0.3750000000000000
  0.6307523841307372  0.9642427879212150  0.1250000000000000
  0.8692476158692628  0.0357572120787850  0.3750000000000000
  0.5000000000000000  0.2522308799280140  0.0311856214220683
  0.5000000000000000  0.7477691200719860  0.2811856214220683
  0.5000000000000000  0.2522308799280140  0.2188143785779317
  0.5000000000000000  0.7477691200719860  0.9688143785779317
  0.7500000000000000  0.7522308799280140  0.0311856214220683
  0.7500000000000000  0.2477691200719860  0.2811856214220683
  0.7500000000000000  0.7522308799280140  0.2188143785779317
  0.7500000000000000  0.2477691200719860  0.9688143785779317
  0.1192476158692628  0.4642427879212150  0.6250000000000000
  0.8807523841307372  0.5357572120787850  0.8750000000000000
  0.8807523841307372  0.4642427879212150  0.6250000000000000
  0.1192476158692628  0.5357572120787850  0.8750000000000000
  0.3692476158692628  0.9642427879212150  0.6250000000000000
  0.1307523841307372  0.0357572120787850  0.8750000000000000
  0.1307523841307372  0.9642427879212150  0.6250000000000000
  0.3692476158692628  0.0357572120787850  0.8750000000000000
  0.0000000000000000  0.2522308799280140  0.5311856214220683
  0.0000000000000000  0.7477691200719860  0.7811856214220683
  0.0000000000000000  0.2522308799280140  0.7188143785779317
  0.0000000000000000  0.7477691200719860  0.4688143785779317
  0.2500000000000000  0.7522308799280140  0.5311856214220683
  0.2500000000000000  0.2477691200719860  0.7811856214220683
  0.2500000000000000  0.7522308799280140  0.7188143785779317
  0.2500000000000000  0.2477691200719860  0.4688143785779317
  0.6192476158692628  0.4642427879212150  0.6250000000000000
  0.3807523841307372  0.5357572120787850  0.8750000000000000
  0.3807523841307372  0.4642427879212150  0.6250000000000000
  0.6192476158692628  0.5357572120787850  0.8750000000000000
  0.8692476158692628  0.9642427879212150  0.6250000000000000
  0.6307523841307372  0.0357572120787850  0.8750000000000000
  0.6307523841307372  0.9642427879212150  0.6250000000000000
  0.8692476158692628  0.0357572120787850  0.8750000000000000
  0.5000000000000000  0.2522308799280140  0.5311856214220683
  0.5000000000000000  0.7477691200719860  0.7811856214220683
  0.5000000000000000  0.2522308799280140  0.7188143785779317
  0.5000000000000000  0.7477691200719860  0.4688143785779317
  0.7500000000000000  0.7522308799280140  0.5311856214220683
  0.7500000000000000  0.2477691200719860  0.7811856214220683
  0.7500000000000000  0.7522308799280140  0.7188143785779317
  0.7500000000000000  0.2477691200719860  0.4688143785779317
 
  0.00000000E+00  0.00000000E+00  0.00000000E+00
  0.00000000E+00  0.00000000E+00  0.00000000E+00
  0.00000000E+00  0.00000000E+00  0.00000000E+00
  0.00000000E+00  0.00000000E+00  0.00000000E+00
  0.00000000E+00  0.00000000E+00  0.00000000E+00
  0.00000000E+00  0.00000000E+00  0.00000000E+00
  0.00000000E+00  0.00000000E+00  0.00000000E+00
  0.00000000E+00  0.00000000E+00  0.00000000E+00
  0.00000000E+00  0.00000000E+00  0.00000000E+00
  0.00000000E+00  0.00000000E+00  0.00000000E+00
  0.00000000E+00  0.00000000E+00  0.00000000E+00
  0.00000000E+00  0.00000000E+00  0.00000000E+00
  0.00000000E+00  0.00000000E+00  0.00000000E+00
  0.00000000E+00  0.00000000E+00  0.00000000E+00
  0.00000000E+00  0.00000000E+00  0.00000000E+00
  0.00000000E+00  0.00000000E+00  0.00000000E+00
  0.00000000E+00  0.00000000E+00  0.00000000E+00
  0.00000000E+00  0.00000000E+00  0.00000000E+00
  0.00000000E+00  0.00000000E+00  0.00000000E+00
  0.00000000E+00  0.00000000E+00  0.00000000E+00
  0.00000000E+00  0.00000000E+00  0.00000000E+00
  0.00000000E+00  0.00000000E+00  0.00000000E+00
  0.00000000E+00  0.00000000E+00  0.00000000E+00
  0.00000000E+00  0.00000000E+00  0.00000000E+00
  0.00000000E+00  0.00000000E+00  0.00000000E+00
  0.00000000E+00  0.00000000E+00  0.00000000E+00
  0.00000000E+00  0.00000000E+00  0.00000000E+00
  0.00000000E+00  0.00000000E+00  0.00000000E+00
  0.00000000E+00  0.00000000E+00  0.00000000E+00
  0.00000000E+00  0.00000000E+00  0.00000000E+00
  0.00000000E+00  0.00000000E+00  0.00000000E+00
  0.00000000E+00  0.00000000E+00  0.00000000E+00
  0.00000000E+00  0.00000000E+00  0.00000000E+00
  0.00000000E+00  0.00000000E+00  0.00000000E+00
  0.00000000E+00  0.00000000E+00  0.00000000E+00
  0.00000000E+00  0.00000000E+00  0.00000000E+00
  0.00000000E+00  0.00000000E+00  0.00000000E+00
  0.00000000E+00  0.00000000E+00  0.00000000E+00
  0.00000000E+00  0.00000000E+00  0.00000000E+00
  0.00000000E+00  0.00000000E+00  0.00000000E+00
  0.00000000E+00  0.00000000E+00  0.00000000E+00
  0.00000000E+00  0.00000000E+00  0.00000000E+00
  0.00000000E+00  0.00000000E+00  0.00000000E+00
  0.00000000E+00  0.00000000E+00  0.00000000E+00
  0.00000000E+00  0.00000000E+00  0.00000000E+00
  0.00000000E+00  0.00000000E+00  0.00000000E+00
  0.00000000E+00  0.00000000E+00  0.00000000E+00
  0.00000000E+00  0.00000000E+00  0.00000000E+00
  0.00000000E+00  0.00000000E+00  0.00000000E+00
  0.00000000E+00  0.00000000E+00  0.00000000E+00
  0.00000000E+00  0.00000000E+00  0.00000000E+00
  0.00000000E+00  0.00000000E+00  0.00000000E+00
  0.00000000E+00  0.00000000E+00  0.00000000E+00
  0.00000000E+00  0.00000000E+00  0.00000000E+00
  0.00000000E+00  0.00000000E+00  0.00000000E+00
  0.00000000E+00  0.00000000E+00  0.00000000E+00
  0.00000000E+00  0.00000000E+00  0.00000000E+00
  0.00000000E+00  0.00000000E+00  0.00000000E+00
  0.00000000E+00  0.00000000E+00  0.00000000E+00
  0.00000000E+00  0.00000000E+00  0.00000000E+00
  0.00000000E+00  0.00000000E+00  0.00000000E+00
  0.00000000E+00  0.00000000E+00  0.00000000E+00
  0.00000000E+00  0.00000000E+00  0.00000000E+00
  0.00000000E+00  0.00000000E+00  0.00000000E+00
  0.00000000E+00  0.00000000E+00  0.00000000E+00
  0.00000000E+00  0.00000000E+00  0.00000000E+00
  0.00000000E+00  0.00000000E+00  0.00000000E+00
  0.00000000E+00  0.00000000E+00  0.00000000E+00
  0.00000000E+00  0.00000000E+00  0.00000000E+00
  0.00000000E+00  0.00000000E+00  0.00000000E+00
  0.00000000E+00  0.00000000E+00  0.00000000E+00
  0.00000000E+00  0.00000000E+00  0.00000000E+00
  0.00000000E+00  0.00000000E+00  0.00000000E+00
  0.00000000E+00  0.00000000E+00  0.00000000E+00
  0.00000000E+00  0.00000000E+00  0.00000000E+00
  0.00000000E+00  0.00000000E+00  0.00000000E+00
  0.00000000E+00  0.00000000E+00  0.00000000E+00
  0.00000000E+00  0.00000000E+00  0.00000000E+00
  0.00000000E+00  0.00000000E+00  0.00000000E+00
  0.00000000E+00  0.00000000E+00  0.00000000E+00
  0.00000000E+00  0.00000000E+00  0.00000000E+00
  0.00000000E+00  0.00000000E+00  0.00000000E+00
  0.00000000E+00  0.00000000E+00  0.00000000E+00
  0.00000000E+00  0.00000000E+00  0.00000000E+00
  0.00000000E+00  0.00000000E+00  0.00000000E+00
  0.00000000E+00  0.00000000E+00  0.00000000E+00
  0.00000000E+00  0.00000000E+00  0.00000000E+00
  0.00000000E+00  0.00000000E+00  0.00000000E+00
  0.00000000E+00  0.00000000E+00  0.00000000E+00
  0.00000000E+00  0.00000000E+00  0.00000000E+00
  0.00000000E+00  0.00000000E+00  0.00000000E+00
  0.00000000E+00  0.00000000E+00  0.00000000E+00
  0.00000000E+00  0.00000000E+00  0.00000000E+00
  0.00000000E+00  0.00000000E+00  0.00000000E+00
  0.00000000E+00  0.00000000E+00  0.00000000E+00
  0.00000000E+00  0.00000000E+00  0.00000000E+00
