Zincblende                              
   14.0000000000000     
     1.0418714134292182   -0.0000000000000000   -0.0000000000000000
    -0.0000000000000000    1.0418714134292182   -0.0000000000000000
    -0.0000000000000000   -0.0000000000000000    1.0418714134292182
   In   P    O 
    16    48   144
Direct
  0.1041235712823471  0.1041235712823471  0.1041235712823471
  0.3958764287176529  0.8958764287176528  0.6041235712823472
  0.8958764287176528  0.6041235712823472  0.3958764287176529
  0.6041235712823472  0.3958764287176529  0.8958764287176528
  0.3541235712823471  0.3541235712823471  0.3541235712823471
  0.1458764287176529  0.6458764287176528  0.8541235712823472
  0.8541235712823472  0.1458764287176529  0.6458764287176528
  0.6458764287176528  0.8541235712823472  0.1458764287176529
  0.6041235712823472  0.6041235712823472  0.6041235712823472
  0.8958764287176528  0.3958764287176529  0.1041235712823471
  0.3958764287176529  0.1041235712823471  0.8958764287176528
  0.1041235712823471  0.8958764287176528  0.3958764287176529
  0.8541235712823472  0.8541235712823472  0.8541235712823472
  0.6458764287176528  0.1458764287176529  0.3541235712823471
  0.3541235712823471  0.6458764287176528  0.1458764287176529
  0.1458764287176529  0.3541235712823471  0.6458764287176528
  0.3326413884177606  0.0412262020606590  0.1248749671356231
  0.1673586115822394  0.9587737979393410  0.6248749671356228
  0.6673586115822395  0.5412262020606590  0.3751250328643768
  0.8326413884177605  0.4587737979393410  0.8751250328643772
  0.1248749671356231  0.3326413884177606  0.0412262020606590
  0.6248749671356228  0.1673586115822394  0.9587737979393410
  0.3751250328643768  0.6673586115822395  0.5412262020606590
  0.8751250328643772  0.8326413884177605  0.4587737979393410
  0.0412262020606590  0.1248749671356231  0.3326413884177606
  0.9587737979393410  0.6248749671356228  0.1673586115822394
  0.5412262020606590  0.3751250328643768  0.6673586115822395
  0.4587737979393410  0.8751250328643772  0.8326413884177605
  0.2912262020606590  0.5826413884177605  0.3748749671356232
  0.2087737979393410  0.4173586115822394  0.8748749671356228
  0.7912262020606590  0.9173586115822395  0.6251250328643772
  0.7087737979393410  0.0826413884177606  0.1251250328643769
  0.5826413884177605  0.3748749671356232  0.2912262020606590
  0.4173586115822394  0.8748749671356228  0.2087737979393410
  0.9173586115822395  0.6251250328643772  0.7912262020606590
  0.0826413884177606  0.1251250328643769  0.7087737979393410
  0.3748749671356232  0.2912262020606590  0.5826413884177605
  0.8748749671356228  0.2087737979393410  0.4173586115822394
  0.6251250328643772  0.7912262020606590  0.9173586115822395
  0.1251250328643769  0.7087737979393410  0.0826413884177606
  0.8326413884177605  0.5412262020606590  0.6248749671356228
  0.6673586115822395  0.4587737979393410  0.1248749671356231
  0.1673586115822394  0.0412262020606590  0.8751250328643772
  0.3326413884177606  0.9587737979393410  0.3751250328643768
  0.6248749671356228  0.8326413884177605  0.5412262020606590
  0.1248749671356231  0.6673586115822395  0.4587737979393410
  0.8751250328643772  0.1673586115822394  0.0412262020606590
  0.3751250328643768  0.3326413884177606  0.9587737979393410
  0.5412262020606590  0.6248749671356228  0.8326413884177605
  0.4587737979393410  0.1248749671356231  0.6673586115822395
  0.0412262020606590  0.8751250328643772  0.1673586115822394
  0.9587737979393410  0.3751250328643768  0.3326413884177606
  0.7912262020606590  0.0826413884177606  0.8748749671356228
  0.7087737979393410  0.9173586115822395  0.3748749671356232
  0.2912262020606590  0.4173586115822394  0.1251250328643769
  0.2087737979393410  0.5826413884177605  0.6251250328643772
  0.0826413884177606  0.8748749671356228  0.7912262020606590
  0.9173586115822395  0.3748749671356232  0.7087737979393410
  0.4173586115822394  0.1251250328643769  0.2912262020606590
  0.5826413884177605  0.6251250328643772  0.2087737979393410
  0.8748749671356228  0.7912262020606590  0.0826413884177606
  0.3748749671356232  0.7087737979393410  0.9173586115822395
  0.1251250328643769  0.2912262020606590  0.4173586115822394
  0.6251250328643772  0.2087737979393410  0.5826413884177605
  0.0914176952647321  0.0933851238772217  0.8146911633095267
  0.4085823047352679  0.9066148761227784  0.3146911633095265
  0.9085823047352679  0.5933851238772216  0.6853088366904733
  0.5914176952647321  0.4066148761227783  0.1853088366904734
  0.8146911633095267  0.0914176952647321  0.0933851238772217
  0.3146911633095265  0.4085823047352679  0.9066148761227784
  0.6853088366904733  0.9085823047352679  0.5933851238772216
  0.1853088366904734  0.5914176952647321  0.4066148761227783
  0.0933851238772217  0.8146911633095267  0.0914176952647321
  0.9066148761227784  0.3146911633095265  0.4085823047352679
  0.5933851238772216  0.6853088366904733  0.9085823047352679
  0.4066148761227783  0.1853088366904734  0.5914176952647321
  0.3433851238772217  0.3414176952647321  0.0646911633095266
  0.1566148761227783  0.6585823047352679  0.5646911633095267
  0.8433851238772216  0.1585823047352679  0.9353088366904733
  0.6566148761227784  0.8414176952647321  0.4353088366904735
  0.3414176952647321  0.0646911633095266  0.3433851238772217
  0.6585823047352679  0.5646911633095267  0.1566148761227783
  0.1585823047352679  0.9353088366904733  0.8433851238772216
  0.8414176952647321  0.4353088366904735  0.6566148761227784
  0.0646911633095266  0.3433851238772217  0.3414176952647321
  0.5646911633095267  0.1566148761227783  0.6585823047352679
  0.9353088366904733  0.8433851238772216  0.1585823047352679
  0.4353088366904735  0.6566148761227784  0.8414176952647321
  0.5914176952647321  0.5933851238772216  0.3146911633095265
  0.9085823047352679  0.4066148761227783  0.8146911633095267
  0.4085823047352679  0.0933851238772217  0.1853088366904734
  0.0914176952647321  0.9066148761227784  0.6853088366904733
  0.3146911633095265  0.5914176952647321  0.5933851238772216
  0.8146911633095267  0.9085823047352679  0.4066148761227783
  0.1853088366904734  0.4085823047352679  0.0933851238772217
  0.6853088366904733  0.0914176952647321  0.9066148761227784
  0.5933851238772216  0.3146911633095265  0.5914176952647321
  0.4066148761227783  0.8146911633095267  0.9085823047352679
  0.0933851238772217  0.1853088366904734  0.4085823047352679
  0.9066148761227784  0.6853088366904733  0.0914176952647321
  0.8433851238772216  0.8414176952647321  0.5646911633095267
  0.6566148761227784  0.1585823047352679  0.0646911633095266
  0.3433851238772217  0.6585823047352679  0.4353088366904735
  0.1566148761227783  0.3414176952647321  0.9353088366904733
  0.8414176952647321  0.5646911633095267  0.8433851238772216
  0.1585823047352679  0.0646911633095266  0.6566148761227784
  0.6585823047352679  0.4353088366904735  0.3433851238772217
  0.3414176952647321  0.9353088366904733  0.1566148761227783
  0.5646911633095267  0.8433851238772216  0.8414176952647321
  0.0646911633095266  0.6566148761227784  0.1585823047352679
  0.4353088366904735  0.3433851238772217  0.6585823047352679
  0.9353088366904733  0.1566148761227783  0.3414176952647321
  0.0716003455435485  0.1534948287930072  0.2386671615515334
  0.4283996544564515  0.8465051712069929  0.7386671615515333
  0.9283996544564516  0.6534948287930071  0.2613328384484666
  0.5716003455435484  0.3465051712069928  0.7613328384484667
  0.2386671615515334  0.0716003455435485  0.1534948287930072
  0.7386671615515333  0.4283996544564515  0.8465051712069929
  0.2613328384484666  0.9283996544564516  0.6534948287930071
  0.7613328384484667  0.5716003455435484  0.3465051712069928
  0.1534948287930072  0.2386671615515334  0.0716003455435485
  0.8465051712069929  0.7386671615515333  0.4283996544564515
  0.6534948287930071  0.2613328384484666  0.9283996544564516
  0.3465051712069928  0.7613328384484667  0.5716003455435484
  0.4034948287930072  0.3216003455435485  0.4886671615515334
  0.0965051712069928  0.6783996544564516  0.9886671615515333
  0.9034948287930071  0.1783996544564515  0.5113328384484667
  0.5965051712069929  0.8216003455435484  0.0113328384484666
  0.3216003455435485  0.4886671615515334  0.4034948287930072
  0.6783996544564516  0.9886671615515333  0.0965051712069928
  0.1783996544564515  0.5113328384484667  0.9034948287930071
  0.8216003455435484  0.0113328384484666  0.5965051712069929
  0.4886671615515334  0.4034948287930072  0.3216003455435485
  0.9886671615515333  0.0965051712069928  0.6783996544564516
  0.5113328384484667  0.9034948287930071  0.1783996544564515
  0.0113328384484666  0.5965051712069929  0.8216003455435484
  0.5716003455435484  0.6534948287930071  0.7386671615515333
  0.9283996544564516  0.3465051712069928  0.2386671615515334
  0.4283996544564515  0.1534948287930072  0.7613328384484667
  0.0716003455435485  0.8465051712069929  0.2613328384484666
  0.7386671615515333  0.5716003455435484  0.6534948287930071
  0.2386671615515334  0.9283996544564516  0.3465051712069928
  0.7613328384484667  0.4283996544564515  0.1534948287930072
  0.2613328384484666  0.0716003455435485  0.8465051712069929
  0.6534948287930071  0.7386671615515333  0.5716003455435484
  0.3465051712069928  0.2386671615515334  0.9283996544564516
  0.1534948287930072  0.7613328384484667  0.4283996544564515
  0.8465051712069929  0.2613328384484666  0.0716003455435485
  0.9034948287930071  0.8216003455435484  0.9886671615515333
  0.5965051712069929  0.1783996544564515  0.4886671615515334
  0.4034948287930072  0.6783996544564516  0.0113328384484666
  0.0965051712069928  0.3216003455435485  0.5113328384484667
  0.8216003455435484  0.9886671615515333  0.9034948287930071
  0.1783996544564515  0.4886671615515334  0.5965051712069929
  0.6783996544564516  0.0113328384484666  0.4034948287930072
  0.3216003455435485  0.5113328384484667  0.0965051712069928
  0.9886671615515333  0.9034948287930071  0.8216003455435484
  0.4886671615515334  0.5965051712069929  0.1783996544564515
  0.0113328384484666  0.4034948287930072  0.6783996544564516
  0.5113328384484667  0.0965051712069928  0.3216003455435485
  0.1390697904388580  0.0474375403631839  0.9730408641200515
  0.3609302095611420  0.9525624596368162  0.4730408641200587
  0.8609302095611420  0.5474375403631838  0.5269591358799485
  0.6390697904388580  0.4525624596368160  0.0269591358799413
  0.9730408641200586  0.1390697904388580  0.0474375403631839
  0.4730408641200587  0.3609302095611420  0.9525624596368162
  0.5269591358799485  0.8609302095611420  0.5474375403631838
  0.0269591358799413  0.6390697904388580  0.4525624596368160
  0.0474375403631839  0.9730408641200515  0.1390697904388580
  0.9525624596368162  0.4730408641200587  0.3609302095611420
  0.5474375403631838  0.5269591358799485  0.8609302095611420
  0.4525624596368160  0.0269591358799413  0.6390697904388580
  0.2974375403631840  0.3890697904388580  0.2230408641200587
  0.2025624596368161  0.6109302095611420  0.7230408641200515
  0.7974375403631838  0.1109302095611420  0.7769591358799485
  0.7025624596368162  0.8890697904388580  0.2769591358799413
  0.3890697904388580  0.2230408641200587  0.2974375403631840
  0.6109302095611420  0.7230408641200586  0.2025624596368161
  0.1109302095611420  0.7769591358799485  0.7974375403631838
  0.8890697904388580  0.2769591358799413  0.7025624596368162
  0.2230408641200587  0.2974375403631840  0.3890697904388580
  0.7230408641200515  0.2025624596368161  0.6109302095611420
  0.7769591358799414  0.7974375403631838  0.1109302095611420
  0.2769591358799413  0.7025624596368162  0.8890697904388580
  0.6390697904388580  0.5474375403631838  0.4730408641200587
  0.8609302095611420  0.4525624596368160  0.9730408641200515
  0.3609302095611420  0.0474375403631910  0.0269591358799413
  0.1390697904388580  0.9525624596368162  0.5269591358799485
  0.4730408641200587  0.6390697904388580  0.5474375403631838
  0.9730408641200515  0.8609302095611420  0.4525624596368160
  0.0269591358799413  0.3609302095611420  0.0474375403631910
  0.5269591358799485  0.1390697904388580  0.9525624596368162
  0.5474375403631838  0.4730408641200587  0.6390697904388580
  0.4525624596368160  0.9730408641200586  0.8609302095611420
  0.0474375403631910  0.0269591358799413  0.3609302095611420
  0.9525624596368162  0.5269591358799485  0.1390697904388580
  0.7974375403631838  0.8890697904388580  0.7230408641200586
  0.7025624596368162  0.1109302095611420  0.2230408641200587
  0.2974375403631911  0.6109302095611420  0.2769591358799413
  0.2025624596368090  0.3890697904388580  0.7769591358799414
  0.8890697904388580  0.7230408641200515  0.7974375403631838
  0.1109302095611420  0.2230408641200587  0.7025624596368162
  0.6109302095611420  0.2769591358799413  0.2974375403631911
  0.3890697904388580  0.7769591358799485  0.2025624596368090
  0.7230408641200586  0.7974375403631838  0.8890697904388580
  0.2230408641200587  0.7025624596368162  0.1109302095611420
  0.2769591358799413  0.2974375403631911  0.6109302095611420
  0.7769591358799485  0.2025624596368090  0.3890697904388580
 
  0.00000000E+00  0.00000000E+00  0.00000000E+00
  0.00000000E+00  0.00000000E+00  0.00000000E+00
  0.00000000E+00  0.00000000E+00  0.00000000E+00
  0.00000000E+00  0.00000000E+00  0.00000000E+00
  0.00000000E+00  0.00000000E+00  0.00000000E+00
  0.00000000E+00  0.00000000E+00  0.00000000E+00
  0.00000000E+00  0.00000000E+00  0.00000000E+00
  0.00000000E+00  0.00000000E+00  0.00000000E+00
  0.00000000E+00  0.00000000E+00  0.00000000E+00
  0.00000000E+00  0.00000000E+00  0.00000000E+00
  0.00000000E+00  0.00000000E+00  0.00000000E+00
  0.00000000E+00  0.00000000E+00  0.00000000E+00
  0.00000000E+00  0.00000000E+00  0.00000000E+00
  0.00000000E+00  0.00000000E+00  0.00000000E+00
  0.00000000E+00  0.00000000E+00  0.00000000E+00
  0.00000000E+00  0.00000000E+00  0.00000000E+00
  0.00000000E+00  0.00000000E+00  0.00000000E+00
  0.00000000E+00  0.00000000E+00  0.00000000E+00
  0.00000000E+00  0.00000000E+00  0.00000000E+00
  0.00000000E+00  0.00000000E+00  0.00000000E+00
  0.00000000E+00  0.00000000E+00  0.00000000E+00
  0.00000000E+00  0.00000000E+00  0.00000000E+00
  0.00000000E+00  0.00000000E+00  0.00000000E+00
  0.00000000E+00  0.00000000E+00  0.00000000E+00
  0.00000000E+00  0.00000000E+00  0.00000000E+00
  0.00000000E+00  0.00000000E+00  0.00000000E+00
  0.00000000E+00  0.00000000E+00  0.00000000E+00
  0.00000000E+00  0.00000000E+00  0.00000000E+00
  0.00000000E+00  0.00000000E+00  0.00000000E+00
  0.00000000E+00  0.00000000E+00  0.00000000E+00
  0.00000000E+00  0.00000000E+00  0.00000000E+00
  0.00000000E+00  0.00000000E+00  0.00000000E+00
  0.00000000E+00  0.00000000E+00  0.00000000E+00
  0.00000000E+00  0.00000000E+00  0.00000000E+00
  0.00000000E+00  0.00000000E+00  0.00000000E+00
  0.00000000E+00  0.00000000E+00  0.00000000E+00
  0.00000000E+00  0.00000000E+00  0.00000000E+00
  0.00000000E+00  0.00000000E+00  0.00000000E+00
  0.00000000E+00  0.00000000E+00  0.00000000E+00
  0.00000000E+00  0.00000000E+00  0.00000000E+00
  0.00000000E+00  0.00000000E+00  0.00000000E+00
  0.00000000E+00  0.00000000E+00  0.00000000E+00
  0.00000000E+00  0.00000000E+00  0.00000000E+00
  0.00000000E+00  0.00000000E+00  0.00000000E+00
  0.00000000E+00  0.00000000E+00  0.00000000E+00
  0.00000000E+00  0.00000000E+00  0.00000000E+00
  0.00000000E+00  0.00000000E+00  0.00000000E+00
  0.00000000E+00  0.00000000E+00  0.00000000E+00
  0.00000000E+00  0.00000000E+00  0.00000000E+00
  0.00000000E+00  0.00000000E+00  0.00000000E+00
  0.00000000E+00  0.00000000E+00  0.00000000E+00
  0.00000000E+00  0.00000000E+00  0.00000000E+00
  0.00000000E+00  0.00000000E+00  0.00000000E+00
  0.00000000E+00  0.00000000E+00  0.00000000E+00
  0.00000000E+00  0.00000000E+00  0.00000000E+00
  0.00000000E+00  0.00000000E+00  0.00000000E+00
  0.00000000E+00  0.00000000E+00  0.00000000E+00
  0.00000000E+00  0.00000000E+00  0.00000000E+00
  0.00000000E+00  0.00000000E+00  0.00000000E+00
  0.00000000E+00  0.00000000E+00  0.00000000E+00
  0.00000000E+00  0.00000000E+00  0.00000000E+00
  0.00000000E+00  0.00000000E+00  0.00000000E+00
  0.00000000E+00  0.00000000E+00  0.00000000E+00
  0.00000000E+00  0.00000000E+00  0.00000000E+00
  0.00000000E+00  0.00000000E+00  0.00000000E+00
  0.00000000E+00  0.00000000E+00  0.00000000E+00
  0.00000000E+00  0.00000000E+00  0.00000000E+00
  0.00000000E+00  0.00000000E+00  0.00000000E+00
  0.00000000E+00  0.00000000E+00  0.00000000E+00
  0.00000000E+00  0.00000000E+00  0.00000000E+00
  0.00000000E+00  0.00000000E+00  0.00000000E+00
  0.00000000E+00  0.00000000E+00  0.00000000E+00
  0.00000000E+00  0.00000000E+00  0.00000000E+00
  0.00000000E+00  0.00000000E+00  0.00000000E+00
  0.00000000E+00  0.00000000E+00  0.00000000E+00
  0.00000000E+00  0.00000000E+00  0.00000000E+00
  0.00000000E+00  0.00000000E+00  0.00000000E+00
  0.00000000E+00  0.00000000E+00  0.00000000E+00
  0.00000000E+00  0.00000000E+00  0.00000000E+00
  0.00000000E+00  0.00000000E+00  0.00000000E+00
  0.00000000E+00  0.00000000E+00  0.00000000E+00
  0.00000000E+00  0.00000000E+00  0.00000000E+00
  0.00000000E+00  0.00000000E+00  0.00000000E+00
  0.00000000E+00  0.00000000E+00  0.00000000E+00
  0.00000000E+00  0.00000000E+00  0.00000000E+00
  0.00000000E+00  0.00000000E+00  0.00000000E+00
  0.00000000E+00  0.00000000E+00  0.00000000E+00
  0.00000000E+00  0.00000000E+00  0.00000000E+00
  0.00000000E+00  0.00000000E+00  0.00000000E+00
  0.00000000E+00  0.00000000E+00  0.00000000E+00
  0.00000000E+00  0.00000000E+00  0.00000000E+00
  0.00000000E+00  0.00000000E+00  0.00000000E+00
  0.00000000E+00  0.00000000E+00  0.00000000E+00
  0.00000000E+00  0.00000000E+00  0.00000000E+00
  0.00000000E+00  0.00000000E+00  0.00000000E+00
  0.00000000E+00  0.00000000E+00  0.00000000E+00
  0.00000000E+00  0.00000000E+00  0.00000000E+00
  0.00000000E+00  0.00000000E+00  0.00000000E+00
  0.00000000E+00  0.00000000E+00  0.00000000E+00
  0.00000000E+00  0.00000000E+00  0.00000000E+00
  0.00000000E+00  0.00000000E+00  0.00000000E+00
  0.00000000E+00  0.00000000E+00  0.00000000E+00
  0.00000000E+00  0.00000000E+00  0.00000000E+00
  0.00000000E+00  0.00000000E+00  0.00000000E+00
  0.00000000E+00  0.00000000E+00  0.00000000E+00
  0.00000000E+00  0.00000000E+00  0.00000000E+00
  0.00000000E+00  0.00000000E+00  0.00000000E+00
  0.00000000E+00  0.00000000E+00  0.00000000E+00
  0.00000000E+00  0.00000000E+00  0.00000000E+00
  0.00000000E+00  0.00000000E+00  0.00000000E+00
  0.00000000E+00  0.00000000E+00  0.00000000E+00
  0.00000000E+00  0.00000000E+00  0.00000000E+00
  0.00000000E+00  0.00000000E+00  0.00000000E+00
  0.00000000E+00  0.00000000E+00  0.00000000E+00
  0.00000000E+00  0.00000000E+00  0.00000000E+00
  0.00000000E+00  0.00000000E+00  0.00000000E+00
  0.00000000E+00  0.00000000E+00  0.00000000E+00
  0.00000000E+00  0.00000000E+00  0.00000000E+00
  0.00000000E+00  0.00000000E+00  0.00000000E+00
  0.00000000E+00  0.00000000E+00  0.00000000E+00
  0.00000000E+00  0.00000000E+00  0.00000000E+00
  0.00000000E+00  0.00000000E+00  0.00000000E+00
  0.00000000E+00  0.00000000E+00  0.00000000E+00
  0.00000000E+00  0.00000000E+00  0.00000000E+00
  0.00000000E+00  0.00000000E+00  0.00000000E+00
  0.00000000E+00  0.00000000E+00  0.00000000E+00
  0.00000000E+00  0.00000000E+00  0.00000000E+00
  0.00000000E+00  0.00000000E+00  0.00000000E+00
  0.00000000E+00  0.00000000E+00  0.00000000E+00
  0.00000000E+00  0.00000000E+00  0.00000000E+00
  0.00000000E+00  0.00000000E+00  0.00000000E+00
  0.00000000E+00  0.00000000E+00  0.00000000E+00
  0.00000000E+00  0.00000000E+00  0.00000000E+00
  0.00000000E+00  0.00000000E+00  0.00000000E+00
  0.00000000E+00  0.00000000E+00  0.00000000E+00
  0.00000000E+00  0.00000000E+00  0.00000000E+00
  0.00000000E+00  0.00000000E+00  0.00000000E+00
  0.00000000E+00  0.00000000E+00  0.00000000E+00
  0.00000000E+00  0.00000000E+00  0.00000000E+00
  0.00000000E+00  0.00000000E+00  0.00000000E+00
  0.00000000E+00  0.00000000E+00  0.00000000E+00
  0.00000000E+00  0.00000000E+00  0.00000000E+00
  0.00000000E+00  0.00000000E+00  0.00000000E+00
  0.00000000E+00  0.00000000E+00  0.00000000E+00
  0.00000000E+00  0.00000000E+00  0.00000000E+00
  0.00000000E+00  0.00000000E+00  0.00000000E+00
  0.00000000E+00  0.00000000E+00  0.00000000E+00
  0.00000000E+00  0.00000000E+00  0.00000000E+00
  0.00000000E+00  0.00000000E+00  0.00000000E+00
  0.00000000E+00  0.00000000E+00  0.00000000E+00
  0.00000000E+00  0.00000000E+00  0.00000000E+00
  0.00000000E+00  0.00000000E+00  0.00000000E+00
  0.00000000E+00  0.00000000E+00  0.00000000E+00
  0.00000000E+00  0.00000000E+00  0.00000000E+00
  0.00000000E+00  0.00000000E+00  0.00000000E+00
  0.00000000E+00  0.00000000E+00  0.00000000E+00
  0.00000000E+00  0.00000000E+00  0.00000000E+00
  0.00000000E+00  0.00000000E+00  0.00000000E+00
  0.00000000E+00  0.00000000E+00  0.00000000E+00
  0.00000000E+00  0.00000000E+00  0.00000000E+00
  0.00000000E+00  0.00000000E+00  0.00000000E+00
  0.00000000E+00  0.00000000E+00  0.00000000E+00
  0.00000000E+00  0.00000000E+00  0.00000000E+00
  0.00000000E+00  0.00000000E+00  0.00000000E+00
  0.00000000E+00  0.00000000E+00  0.00000000E+00
  0.00000000E+00  0.00000000E+00  0.00000000E+00
  0.00000000E+00  0.00000000E+00  0.00000000E+00
  0.00000000E+00  0.00000000E+00  0.00000000E+00
  0.00000000E+00  0.00000000E+00  0.00000000E+00
  0.00000000E+00  0.00000000E+00  0.00000000E+00
  0.00000000E+00  0.00000000E+00  0.00000000E+00
  0.00000000E+00  0.00000000E+00  0.00000000E+00
  0.00000000E+00  0.00000000E+00  0.00000000E+00
  0.00000000E+00  0.00000000E+00  0.00000000E+00
  0.00000000E+00  0.00000000E+00  0.00000000E+00
  0.00000000E+00  0.00000000E+00  0.00000000E+00
  0.00000000E+00  0.00000000E+00  0.00000000E+00
  0.00000000E+00  0.00000000E+00  0.00000000E+00
  0.00000000E+00  0.00000000E+00  0.00000000E+00
  0.00000000E+00  0.00000000E+00  0.00000000E+00
  0.00000000E+00  0.00000000E+00  0.00000000E+00
  0.00000000E+00  0.00000000E+00  0.00000000E+00
  0.00000000E+00  0.00000000E+00  0.00000000E+00
  0.00000000E+00  0.00000000E+00  0.00000000E+00
  0.00000000E+00  0.00000000E+00  0.00000000E+00
  0.00000000E+00  0.00000000E+00  0.00000000E+00
  0.00000000E+00  0.00000000E+00  0.00000000E+00
  0.00000000E+00  0.00000000E+00  0.00000000E+00
  0.00000000E+00  0.00000000E+00  0.00000000E+00
  0.00000000E+00  0.00000000E+00  0.00000000E+00
  0.00000000E+00  0.00000000E+00  0.00000000E+00
  0.00000000E+00  0.00000000E+00  0.00000000E+00
  0.00000000E+00  0.00000000E+00  0.00000000E+00
  0.00000000E+00  0.00000000E+00  0.00000000E+00
  0.00000000E+00  0.00000000E+00  0.00000000E+00
  0.00000000E+00  0.00000000E+00  0.00000000E+00
  0.00000000E+00  0.00000000E+00  0.00000000E+00
  0.00000000E+00  0.00000000E+00  0.00000000E+00
  0.00000000E+00  0.00000000E+00  0.00000000E+00
  0.00000000E+00  0.00000000E+00  0.00000000E+00
  0.00000000E+00  0.00000000E+00  0.00000000E+00
  0.00000000E+00  0.00000000E+00  0.00000000E+00
  0.00000000E+00  0.00000000E+00  0.00000000E+00
  0.00000000E+00  0.00000000E+00  0.00000000E+00
  0.00000000E+00  0.00000000E+00  0.00000000E+00
  0.00000000E+00  0.00000000E+00  0.00000000E+00
  0.00000000E+00  0.00000000E+00  0.00000000E+00
  0.00000000E+00  0.00000000E+00  0.00000000E+00
