201  & Fm(-3)m   O_h^5 #225 (ab) & cF8 & B1 & ClNa & Halite/rock salt & D. Walker et al., Am. Min. 9, 204-10 (2004)
   1.0000000000000000
   0.00000000000000   2.81965339535660   2.81965339535660
   2.81965339535660   0.00000000000000   2.81965339535660
   2.81965339535660   2.81965339535660   0.00000000000000
   Cl   Na
    1    1
Direct
   0.00000000000000   0.00000000000000   0.00000000000000   Cl    (4a)
   0.50000000000000   0.50000000000000   0.50000000000000   Na    (4b)

