Zincblende                              
   5.60000000000000     
     0.5049778151131603    0.5049778151131603    0.0000000000000000
     0.0000000000000000    0.5049778151131603    0.5049778151131603
     0.5049778151131603    0.0000000000000000    0.5049778151131603
   Na   Cl
     1     1
Direct
  0.0000000000000000  0.0000000000000000  0.0000000000000000
  0.5000000000000000  0.5000000000000000  0.5000000000000000
 
  0.00000000E+00  0.00000000E+00  0.00000000E+00
  0.00000000E+00  0.00000000E+00  0.00000000E+00
