219  & P6_3mc    C_{6v}^4 #186 (b^2) & hP4 & B4 & SZn & Wurtzite & E. H. Kisi and M. M. Elcombe, Acta Cryst. C 45, 1867-70 (1989)
   1.0000000000000000
   1.91135000000000  -3.31055531104700   0.00000000000000
   1.91135000000000   3.31055531104700   0.00000000000000
   0.00000000000000   0.00000000000000   6.26070000000000
    S   Zn
    2    2
Direct
   0.33333333333333   0.66666666666667   0.37480000000000    S    (2b)
   0.66666666666667   0.33333333333333   0.87480000000000    S    (2b)
   0.33333333333333   0.66666666666667   0.00000000000000   Zn    (2b)
   0.66666666666667   0.33333333333333   0.50000000000000   Zn    (2b)
