Al2O3 corundum
   1.00000000000000
     2.4028407720020195    1.3872803833562082    4.3710903124321066
    -2.4028407720020195    1.3872803833562082    4.3710903124321066
     0.0000000000000000   -2.7745617855080269    4.3710903153676961
Al O
   4   6
Direct
  0.3520815868335547  0.3520815868335547  0.3520815868336068
  0.1479184131664453  0.1479184131664453  0.1479184131663932
  0.6479184131664454  0.6479184131664454  0.6479184131663932
  0.8520815868335546  0.8520815868335546  0.8520815868336068
  0.5562456559676495  0.9437543440323505  0.2500000000000000
  0.2499999999999578  0.5562456559676073  0.9437543440323835
  0.9437543440323927  0.2500000000000422  0.5562456559676165
  0.4437543440323504  0.0562456559676496  0.7500000000000000
  0.7500000000000422  0.4437543440323926  0.0562456559676166
  0.0562456559676074  0.7499999999999578  0.4437543440323833
