 & Pnnm      D_{2h}^{12} #58 (ag) & oP6 & C35 & CaCl2 & Hydrophilite & A. van Bever and W. Nieuwenkamp, Z. f. Kristall. 90, 374-6 (1935)
   1.0000000000000000
   6.24000000000000   0.00000000000000   0.00000000000000
   0.00000000000000   6.43000000000000   0.00000000000000
   0.00000000000000   0.00000000000000   4.20000000000000
   Ca   Cl
    2    4
Direct
   0.00000000000000   0.00000000000000   0.00000000000000   Ca    (2a)
   0.50000000000000   0.50000000000000   0.50000000000000   Ca    (2a)
   0.22500000000000   0.82500000000000   0.50000000000000   Cl    (4g)
   0.27500000000000   0.32500000000000   0.00000000000000   Cl    (4g)
   0.72500000000000   0.67500000000000   0.00000000000000   Cl    (4g)
   0.77500000000000   0.17500000000000   0.50000000000000   Cl    (4g)
